QBPP_HJ-_25_025_20_1
25 73 1795
11 34 35 25 35 47 13 31 29 18 9 39 15 48 45 48 9 43 25 8 4 46 44 19 45
     0     0     0   -77   -25   -34   -57     0     0     0     0     0     0     0     0   -76     0     0   -17     0     0     0   -36     0     0
     0     0     0   -95     0    -7     0     0   -33   -54     0     0   -92     0     0   -22     0   -45     0     0     0     0     0     0     0
     0     0     0     0     0     0     0     0     0     0     0     0     0     0     0     0     0   -63     0     0     0     0   -61     0   -22
   -77   -95     0     0     0     0     0     0     0     0     0     0     0   -50     0     0   -26   -50     0     0     0   -24     0     0   -46
   -25     0     0     0     0     0     0   -52   -62     0     0   -72   -63   -88   -69     0     0     0     0   -12     0     0     0     0   -24
   -34    -7     0     0     0     0     0     0   -85   -54     0     0     0     0     0   -13     0     0     0     0     0     0     0     0     0
   -57     0     0     0     0     0     0     0     0   -69     0     0     0     0     0     0     0     0     0     0     0     0     0     0     0
     0     0     0     0   -52     0     0     0     0     0     0     0     0     0     0     0     0   -14     0     0   -47     0   -99     0     0
     0   -33     0     0   -62   -85     0     0     0   -80   -73     0   -57   -14     0     0   -84     0     0     0     0     0   -54     0   -38
     0   -54     0     0     0   -54   -69     0   -80     0  -100     0     0     0     0     0     0   -88     0     0     0     0   -84     0     0
     0     0     0     0     0     0     0     0   -73  -100     0   -44     0     0     0     0     0   -96     0     0     0     0     0     0   -75
     0     0     0     0   -72     0     0     0     0     0   -44     0     0     0     0     0     0    -7     0   -73   -91     0     0   -41     0
     0   -92     0     0   -63     0     0     0   -57     0     0     0     0     0   -12     0     0     0     0     0     0     0     0     0     0
     0     0     0   -50   -88     0     0     0   -14     0     0     0     0     0     0     0     0     0   -50     0     0     0     0     0     0
     0     0     0     0   -69     0     0     0     0     0     0     0   -12     0     0     0     0     0     0     0   -73   -28     0     0     0
   -76   -22     0     0     0   -13     0     0     0     0     0     0     0     0     0     0     0   -10     0     0     0   -57     0     0   -34
     0     0     0   -26     0     0     0     0   -84     0     0     0     0     0     0     0     0   -34     0     0     0     0     0   -39     0
     0   -45   -63   -50     0     0     0   -14     0   -88   -96    -7     0     0     0   -10   -34     0     0   -91     0   -99     0     0     0
   -17     0     0     0     0     0     0     0     0     0     0     0     0   -50     0     0     0     0     0     0     0    -4     0   -50   -91
     0     0     0     0   -12     0     0     0     0     0     0   -73     0     0     0     0     0   -91     0     0     0     0   -38   -89     0
     0     0     0     0     0     0     0   -47     0     0     0   -91     0     0   -73     0     0     0     0     0     0     0     0     0     0
     0     0     0   -24     0     0     0     0     0     0     0     0     0     0   -28   -57     0   -99    -4     0     0     0   -98     0     0
   -36     0   -61     0     0     0     0   -99   -54   -84     0     0     0     0     0     0     0     0     0   -38     0   -98     0     0   -95
     0     0     0     0     0     0     0     0     0     0     0   -41     0     0     0     0   -39     0   -50   -89     0     0     0     0     0
     0     0   -22   -46   -24     0     0     0   -38     0   -75     0     0     0     0   -34     0     0   -91     0     0     0   -95     0     0
